p cnf 14 24
-14 -6 3 0
-14 -6 -3 0
13 -11 -7 0
13 -9 2 0
13 -7 6 0
13 -5 4 0
-13 4 -2 0
-12 -11 10 0
-12 11 -5 0
-12 -11 -4 0
12 -10 1 0
12 -8 2 0
12 -6 2 0
11 10 -4 0
11 9 8 0
11 -7 -3 0
-11 6 -3 0
-11 -5 -3 0
-11 -4 -1 0
-10 9 8 0
-10 9 -4 0
10 -3 -2 0
8 -3 2 0
-7 -5 4 0
